<instance format="XCSP3" type="CSP">
  <variables>
    <array id="labels" note="instance variables" size="[32]"> 1..32 </array>
  </variables>
  <constraints>
    <allDifferent> labels[] </allDifferent>
    <intension> eq(labels[15],16) </intension>
    <group>
      <extension type="hybrid-1">
        <list> %0 %1 </list>
        <supports> (1,2..9)(1,25..32)(2,1)(2,3..10)(2,26..32)(3,1..2)(3,4..11)(3,27..32)(4,1..3)(4,5..12)(4,28..32)(5,1..4)(5,6..13)(5,29..32)(6,1..5)(6,7..14)(6,30..32)(7,1..6)(7,8..15)(7,31..32)(8,1..7)(8,9..16)(8,32)(9,1..8)(9,10..17)(10,2..9)(10,11..18)(11,3..10)(11,12..19)(12,4..11)(12,13..20)(13,5..12)(13,14..21)(14,6..13)(14,15..22)(15,7..14)(15,16..23)(16,8..15)(16,17..24)(17,9..16)(17,18..25)(18,10..17)(18,19..26)(19,11..18)(19,20..27)(20,12..19)(20,21..28)(21,13..20)(21,22..29)(22,14..21)(22,23..30)(23,15..22)(23,24..31)(24,16..23)(24,25..32)(25,17..24)(25,26..32)(25,1)(26,18..25)(26,27..32)(26,1..2)(27,19..26)(27,28..32)(27,1..3)(28,20..27)(28,29..32)(28,1..4)(29,21..28)(29,30..32)(29,1..5)(30,22..29)(30,31..32)(30,1..6)(31,23..30)(31,32)(31,1..7)(32,24..31)(32,1..8) </supports>
      </extension>
      <args> labels[0] labels[6] </args>
      <args> labels[0] labels[13] </args>
      <args> labels[0] labels[15] </args>
      <args> labels[1] labels[8] </args>
      <args> labels[1] labels[21] </args>
      <args> labels[1] labels[22] </args>
      <args> labels[1] labels[26] </args>
      <args> labels[1] labels[30] </args>
      <args> labels[2] labels[5] </args>
      <args> labels[2] labels[22] </args>
      <args> labels[2] labels[27] </args>
      <args> labels[2] labels[29] </args>
      <args> labels[2] labels[30] </args>
      <args> labels[3] labels[7] </args>
      <args> labels[3] labels[8] </args>
      <args> labels[3] labels[9] </args>
      <args> labels[3] labels[20] </args>
      <args> labels[3] labels[23] </args>
      <args> labels[3] labels[25] </args>
      <args> labels[3] labels[27] </args>
      <args> labels[4] labels[16] </args>
      <args> labels[4] labels[19] </args>
      <args> labels[4] labels[23] </args>
      <args> labels[4] labels[30] </args>
      <args> labels[5] labels[10] </args>
      <args> labels[5] labels[14] </args>
      <args> labels[5] labels[25] </args>
      <args> labels[6] labels[13] </args>
      <args> labels[6] labels[15] </args>
      <args> labels[6] labels[17] </args>
      <args> labels[6] labels[20] </args>
      <args> labels[6] labels[23] </args>
      <args> labels[7] labels[15] </args>
      <args> labels[7] labels[16] </args>
      <args> labels[7] labels[21] </args>
      <args> labels[7] labels[31] </args>
      <args> labels[8] labels[9] </args>
      <args> labels[8] labels[29] </args>
      <args> labels[9] labels[21] </args>
      <args> labels[9] labels[26] </args>
      <args> labels[9] labels[28] </args>
      <args> labels[10] labels[11] </args>
      <args> labels[10] labels[16] </args>
      <args> labels[10] labels[24] </args>
      <args> labels[10] labels[25] </args>
      <args> labels[10] labels[27] </args>
      <args> labels[10] labels[29] </args>
      <args> labels[11] labels[13] </args>
      <args> labels[11] labels[18] </args>
      <args> labels[11] labels[20] </args>
      <args> labels[12] labels[17] </args>
      <args> labels[12] labels[18] </args>
      <args> labels[12] labels[20] </args>
      <args> labels[14] labels[26] </args>
      <args> labels[14] labels[28] </args>
      <args> labels[14] labels[29] </args>
      <args> labels[15] labels[16] </args>
      <args> labels[15] labels[17] </args>
      <args> labels[15] labels[20] </args>
      <args> labels[15] labels[21] </args>
      <args> labels[15] labels[22] </args>
      <args> labels[15] labels[23] </args>
      <args> labels[15] labels[25] </args>
      <args> labels[15] labels[26] </args>
      <args> labels[16] labels[31] </args>
      <args> labels[17] labels[18] </args>
      <args> labels[17] labels[21] </args>
      <args> labels[17] labels[22] </args>
      <args> labels[17] labels[25] </args>
      <args> labels[17] labels[26] </args>
      <args> labels[17] labels[27] </args>
      <args> labels[18] labels[24] </args>
      <args> labels[18] labels[29] </args>
      <args> labels[18] labels[30] </args>
      <args> labels[18] labels[31] </args>
      <args> labels[19] labels[20] </args>
      <args> labels[19] labels[25] </args>
      <args> labels[20] labels[25] </args>
      <args> labels[20] labels[27] </args>
      <args> labels[20] labels[31] </args>
      <args> labels[21] labels[28] </args>
      <args> labels[22] labels[28] </args>
      <args> labels[22] labels[29] </args>
      <args> labels[23] labels[25] </args>
      <args> labels[23] labels[27] </args>
      <args> labels[24] labels[28] </args>
      <args> labels[26] labels[31] </args>
      <args> labels[27] labels[29] </args>
      <args> labels[27] labels[31] </args>
      <args> labels[30] labels[31] </args>
    </group>
  </constraints>
</instance>
